/* Objective function */
min: - 0.0054fpdi - 0.0054fpdo + 0.05apdi + 0.05apdo + 0.0002pi + 0.0002po - 0.5fsi - 0.5fso;

apdi = 0.0 hi + -0.0 li + 9.41964 ri + -0.03704 ci + -1.71066 si + -0.0 ti + 0.11429 fTempIi + 0.04654 ami + -132.64955;
asi = 0.0 hi + 0.0 li + 0.0 ri + 0.0 ci + 0.0 si + 0.0 ti + 0.0 fTempIi + 0.00043 ami + -0.0;
aTempOi = 0.0 hi + 0.0 li + 0.15437 ri + -0.21429 ci + -0.03814 si + -0.0 ti + 0.8373 fTempIi + -0.00154 ami + 6.72404;
fpdi = 0.0 hi + 0.0 li + 27.3 ri + -326.52196 ci + -0.05334 si + -0.0 ti + -1.72048 fTempIi + 0.00237 ami + 841.50451;
fsi = 0.0 hi + 0.0 li + -0.0 ri + -0.52 ci + -0.0 si + -0.0 ti + -0.0 fTempIi + 0.0 ami + 2.59;
fTempOi = 0.0 hi + -0.0 li + -0.15327 ri + 0.21878 ci + 0.03764 si + 0.0 ti + 0.19921 fTempIi + -0.00164 ami + 10.75369;
pi = 0.0 hi + -0.0 li + 86.75 ri + 3.66667 ci + -8.49286 si + 0.0 ti + 0.0 fTempIi + -0.0 ami + 225.60714;

apdo = 0.0 ho + -0.0 lo + 9.53968 ro + 0.02381 co + -1.0216 so + 0.0 to + 0.07823 fTempIo + 0.0282 amo + -78.99291;
aso = 0.0 ho + 0.0 lo + 0.0 ro + 0.0 co + 0.0 so + 0.0 to + -0.0 fTempIo + 0.00043 amo + -0.0;
aTempOo = 0.0 ho + -0.0 lo + -0.43171 ro + 0.35444 co + 0.06176 so + 0.0 to + 0.73286 fTempIo + 0.00158 amo + 0.28743;
fpdo = 0.0 ho + 0.0 lo + 26.71905 ro + -189.70952 co + 0.04922 so + 0.0 to + -1.07218 fTempIo + -0.00129 amo + 489.58828;
fso = 0.0 ho + 0.0 lo + 4e-05 ro + -0.51968 co + -1e-05 so + 0.0 to + 0.00013 fTempIo + 0.0 amo + 2.58703;
fTempOo = 0.0 ho + -0.0 lo + 0.42063 ro + -0.35159 co + -0.05923 so + 0.0 to + 0.29129 fTempIo + 0.0015 amo + 11.66605;
po = 0.0 ho + -0.0 lo + 74.16667 ro + 3.66667 co + -3.96786 so + 0.0 to + -0.0 fTempIo + -0.0 amo + 218.64881;

/* Variable bounds */
aTempOi > 18.6;
1 =r6i + r8i + r10i + r12i + r14i;
ri =6r6i + 8r8i + 10r10i + 12r12i + 14r14i;
1 =s25i + s30i + s40i;
si =25s25i + 30s30i + 40s40i;
ti = 1;
apdi > 100;
apdi < 300;
asi > 0;
asi < 3;
aTempOi > 5;
aTempOi < 25;
fpdi > 100;
fpdi < 300;
fsi > 0;
fsi < 1.25;
fTempOi > 5;
fTempOi < 25;
pi > 0;
ri > 10;
ri < 14;
ci > 1;
ci < 4;
si > 25;
si < 60;
ti > 1;
ti < 3;
fTempIi > 5;
fTempIi < 25;

/* aTempOo < 11.4; */
1 =r6o + r8o + r10o + r12o + r14o;
ro =6r6o + 8r8o + 10r10o + 12r12o + 14r14o;
1 =s25o + s30o + s40o;
so =25s25o + 30s30o + 40s40o;
to = 1;
apdo > 100;
apdo < 300;
aso > 0;
aso < 3;
aTempOo > 5;
aTempOo < 25;
fpdo > 100;
fpdo < 300;
fso > 0;
fso < 1.25;
fTempOo > 5;
fTempOo < 25;
po > 0;
ro > 6;
ro < 10;
co > 1;
co < 4;
so > 25;
so < 60;
to > 1;
to < 3;
fTempIo > 5;
fTempIo < 25;
int hi,li,si,ti,ci,ri,ami;
int ho,lo,so,to,co,ro,amo;
bin s25i,s30i,s40i,s50i,s60i,r6i,r8i,r10i,r12i,r14i;
bin s25o,s30o,s40o,s50o,s60o,r6o,r8o,r10o,r12o,r14o;
